GLPSOL--GLPK LP/MIP Solver 5.0
Parameter(s) specified in the command line:
 --lp ../modeles/15_154.lp --log 15_154.log
Reading problem data from '../modeles/15_154.lp'...
2371 rows, 4650 columns, 16215 non-zeros
2310 integer variables, all of which are binary
7042 lines were read
GLPK Integer Optimizer 5.0
2371 rows, 4650 columns, 16215 non-zeros
2310 integer variables, all of which are binary
Preprocessing...
2310 constraint coefficient(s) were reduced
2371 rows, 4635 columns, 16200 non-zeros
2310 integer variables, all of which are binary
Scaling...
 A: min|aij| =  6.747e-04  max|aij| =  4.000e+00  ratio =  5.929e+03
GM: min|aij| =  1.140e-01  max|aij| =  8.775e+00  ratio =  7.700e+01
EQ: min|aij| =  1.299e-02  max|aij| =  1.000e+00  ratio =  7.700e+01
2N: min|aij| =  1.079e-02  max|aij| =  1.762e+00  ratio =  1.633e+02
Constructing initial basis...
Size of triangular part is 2371
Solving LP relaxation...
GLPK Simplex Optimizer 5.0
2371 rows, 4635 columns, 16200 non-zeros
      0: obj =   3.000000000e+01 inf =   7.450e+01 (31)
Perturbing LP to avoid stalling [199]...
    314: obj =  -8.736184932e-02 inf =   0.000e+00 (0)
Removing LP perturbation [956]...
*   956: obj =  -3.871838688e+00 inf =   0.000e+00 (0) 1
OPTIMAL LP SOLUTION FOUND
Integer optimization begins...
Long-step dual simplex will be used
+   956: mip =     not found yet >=              -inf        (1; 0)
+   965: >>>>>  -3.871838688e+00 >=  -3.871838688e+00   0.0% (3; 0)
+   965: mip =  -3.871838688e+00 >=     tree is empty   0.0% (0; 5)
INTEGER OPTIMAL SOLUTION FOUND
Time used:   0.1 secs
Memory used: 7.0 Mb (7371989 bytes)
